%chk=Segglu.chk
%mem=4gb
%nproc=8
#p mp2/6-311g(d,p)

Single point energy calculations of segglu

0 1
N -9.00900000 4.61200000 6.10200000
C -9.05200000 4.20700000 4.65100000
C -8.01500000 3.14000000 4.41900000
O -7.52300000 2.52100000 5.38100000
N -7.65600000 2.92300000 3.15500000
C -6.52200000 2.03800000 2.83100000
C -5.24100000 2.53700000 3.42700000
O -4.97800000 3.74200000 3.42600000
C -6.34600000 1.88100000 1.34100000
C -7.58400000 1.34200000 0.69200000
O -8.02500000 0.22700000 1.01600000
N -8.20400000 2.15500000 -0.16900000
N -4.43800000 1.59000000 3.90500000
C -3.19300000 1.90400000 4.58900000
C -1.95500000 1.33200000 3.89500000
O -1.87200000 0.11900000 3.64800000
C -3.25900000 1.37800000 6.04200000
C -2.00600000 1.73900000 6.86100000
O -1.70200000 2.92500000 7.07200000
N -1.27100000 0.71500000 7.30600000
N -1.00500000 2.22800000 3.59800000
C 0.38400000 1.88800000 3.19900000
C 1.43500000 2.60600000 4.08800000
O 1.54700000 3.84300000 4.11500000
C 0.65600000 2.14800000 1.71100000
C 1.94400000 1.45800000 1.21300000
C 2.50400000 2.04400000 -0.08900000
O 2.74400000 3.26800000 -0.19000000
N 2.75000000 1.16100000 -1.09100000
N 2.15400000 1.82100000 4.87100000
C 3.27000000 2.36100000 5.64000000
C 4.59400000 1.76800000 5.17200000
O 4.76800000 0.54600000 5.05400000
C 3.05600000 2.18300000 7.14700000
C 1.82900000 2.95000000 7.64700000
C 1.34400000 2.41400000 8.95400000
O 0.77400000 1.32500000 9.00200000
N 1.54900000 3.18700000 10.03900000
N 5.51400000 2.66400000 4.85600000
C 6.83100000 2.31000000 4.31800000
C 7.85400000 2.76100000 5.32400000
O 8.21900000 3.94300000 5.37400000
C 7.06500000 3.01600000 2.99300000
C 5.96100000 2.73500000 2.00300000
O 5.79800000 1.60400000 1.55100000
N 5.19500000 3.74700000 1.67900000
N 8.29200000 1.81700000 6.14700000
C 9.15900000 2.14400000 7.29900000
C 10.60300000 2.33100000 6.88500000
O 11.04100000 1.81100000 5.85500000
C 9.06100000 1.06500000 8.36900000
C 7.66500000 0.92900000 8.90200000
C 6.77100000 0.02100000 8.32700000
C 7.21000000 1.75600000 9.92000000
C 5.48000000 -0.09400000 8.79600000
C 5.90400000 1.64900000 10.41600000
C 5.04700000 0.72900000 9.83100000
O 3.76600000 0.58900000 10.29100000
O 11.35800000 2.99900000 7.61200000
H -10.00732562 3.75607410 4.48094474
H -8.75424756 5.06120173 4.07952568
H -9.89861124 4.43637120 6.52359978
H -8.79448663 5.58635823 6.16989743
H -5.58758591 1.13864831 1.20453744
H -6.20625436 2.86689362 0.94935612
H -7.68481456 3.00504720 -0.25769185
H -9.12298437 2.35933934 0.16821383
H -6.75490866 1.08439194 3.25677602
H -7.37039377 3.82165248 2.82205435
H -4.07496864 1.89119347 6.50646490
H -3.26940864 0.31042216 5.97080162
H -0.46805040 1.06566103 7.78798421
H -1.81840388 0.15862170 7.93113373
H -3.09059895 2.96893647 4.57099027
H -4.98985109 1.13492420 4.60383217
H 0.82896095 3.20003467 1.62040441
H -0.15090382 1.69058528 1.17754146
H 2.68482091 1.64974297 1.96087633
H 1.66448149 0.45118570 0.98257784
H 2.47489877 0.24398602 -0.80220134
H 3.72670840 1.16391989 -1.30555109
H 0.48366614 0.83425888 3.35583210
H -0.88391541 2.72998160 4.45436032
H 3.90301823 2.62989591 7.62422548
H 2.84231087 1.14552556 7.29827372
H 2.15575863 3.95143082 7.83479008
H 1.04914386 2.76579634 6.93792073
H 1.15088052 2.74530818 10.84299578
H 2.53133102 3.31115657 10.17903895
H 3.31338299 3.41491027 5.46030290
H 1.50703896 1.50212211 5.56364587
H 7.02148863 4.06477159 3.20056905
H 7.95448931 2.58900944 2.57900987
H 5.51940775 4.57210345 2.14156232
H 4.25418391 3.55596945 1.95895074
H 6.89821213 1.25600366 4.14631932
H 5.72467458 3.10569995 5.72807647
H 9.66281476 1.39988800 9.18788279
H 9.28714403 0.13931892 7.88230357
H 7.09320707 -0.59286643 7.51198429
H 7.86973589 2.48964116 10.33402802
H 4.81396490 -0.81273458 8.36621186
H 5.57524051 2.26339742 11.22799323
H 3.62857860 1.17534727 11.03860433
H 8.81015750 3.07186907 7.70182490
H 7.46025730 1.44922990 6.56287165
Na 13.03645064 2.12019087 6.40128780





























