%chk=Segglu.chk
%mem=4gb
%nproc=8
#p mp2/6-31+g(d,p)

Single point energy calculations of segglu

0 1
C -12.87035289 0.56179639 2.16179006
C -11.71952495 -0.07286062 1.42045607
O -10.54898977 0.03899150 1.75984838
H -12.47781856 1.18084623 2.95258624
H -13.50145296 -0.20794566 2.59206961
H -13.47297864 1.16452709 1.49238548
N -12.05989879 -0.78980221 0.31555836
C -11.06857409 -1.63456466 -0.33979848
C -9.86646379 -0.86405869 -0.85949491
O -8.77214321 -1.40465154 -0.95771807
H -13.02222373 -0.92242090 0.08920359
H -10.67500645 -2.38199920 0.33356612
H -11.54102541 -2.13406968 -1.17523325
N -10.07756006 0.41412503 -1.21263986
C -8.98014867 1.23020758 -1.70239489
C -7.83066778 1.36521790 -0.71111020
O -6.71459598 1.67996118 -1.11871007
H -10.99086413 0.80146896 -1.13441515
H -8.54968096 0.81228121 -2.60019040
H -9.35447733 2.21923788 -1.92857601
N -8.09310509 1.12141800 0.57659695
C -7.01438858 1.16107165 1.54680412
C -5.89959385 0.16838229 1.24614902
O -4.77235555 0.35023504 1.70323968
H -9.00148103 0.84161791 0.89558601
H -6.54585756 2.13310507 1.58142862
H -7.42542326 0.93531971 2.52115636
N -6.20365900 -0.87725053 0.46732772
C -5.16087292 -1.80924500 0.08289565
C -4.01653982 -1.15254705 -0.67806841
O -2.91200338 -1.69311299 -0.71623389
H -7.12581477 -1.01749873 0.09945081
H -4.71142531 -2.28220529 0.94327084
H -5.59988837 -2.57216037 -0.54528163
N -4.26871513 0.01760285 -1.27622590
C -3.19230585 0.72841646 -1.93845646
C -2.03810756 1.07591357 -1.00757964
O -0.92005413 1.30218345 -1.47006047
H -5.16838784 0.45932402 -1.23055465
H -2.76186495 0.14564095 -2.73908972
H -3.59223362 1.64543904 -2.34896784
N -2.29712282 1.10878804 0.30446363
C -1.21631718 1.34616295 1.24075304
C -0.10449660 0.30940476 1.15303970
O 1.02218873 0.57755451 1.57010695
H -3.20863686 0.91275706 0.67673944
H -0.74361837 2.30213811 1.07166209
H -1.62454158 1.32982419 2.24200510
N -0.40836758 -0.87128780 0.60206287
C 0.63519788 -1.85905946 0.41025526
C 1.77236030 -1.37046950 -0.47777141
O 2.87717308 -1.90981542 -0.41740322
H -1.32699062 -1.08140456 0.25510145
H 1.09249992 -2.14406659 1.34601707
H 0.19396303 -2.73503927 -0.04513710
N 1.51279672 -0.34362451 -1.29519967
C 2.58257873 0.22399946 -2.09184215
C 3.73637095 0.76614165 -1.25779260
O 4.84727183 0.91139041 -1.76611925
H 0.61192642 0.09827172 -1.33251992
H 3.01681310 -0.50763577 -2.75677169
H 2.17380300 1.03352838 -2.68086654
N 3.48260830 1.05648523 0.02325257
C 4.56462925 1.48683958 0.88677359
C 5.67959101 0.45750421 1.02244455
O 6.79678204 0.80672226 1.39577950
H 2.57571592 0.92609497 0.43360281
H 5.03610770 2.38544453 0.51770168
H 4.15700179 1.68323426 1.86892687
N 5.38324182 -0.81135624 0.71240476
C 6.43265631 -1.81054568 0.73290557
C 7.56115844 -1.53466827 -0.25485447
O 8.65035571 -2.08659955 -0.10822732
H 4.47018851 -1.08982359 0.40280304
H 6.90090871 -1.87440698 1.70392579
H 5.99444521 -2.76923823 0.49166239
N 7.30419326 -0.68321433 -1.25400224
C 8.36010145 -0.31168003 -2.17422215
C 9.50032634 0.49271304 -1.55091093
O 10.52841333 0.66278965 -2.18890991
H 6.41115262 -0.23888007 -1.36023814
H 8.82246733 -1.18502162 -2.61038271
H 7.92715084 0.28325847 -2.96615004
N 9.29464022 0.98323469 -0.31385562
C 10.36977293 1.64054362 0.40066375
C 11.12263842 0.74460275 1.38230406
O 11.96532476 1.23424210 2.12564777
H 8.41651759 0.87903550 0.15758279
H 11.09099433 2.00064070 -0.31816695
H 9.99122852 2.48111390 0.96432266
N 10.82291707 -0.55919795 1.36453736
C 11.52805758 -1.47693785 2.25102093
H 10.12729930 -0.93598698 0.75359916
H 11.50831729 -1.10999775 3.26871007
H 11.03750513 -2.43852565 2.20164817
H 12.56511068 -1.59050344 1.95692459























