%chk=Beta_strand_acetyl(ala)10NH2
%mem= 8gb
%nproc= 8
# mp2/6-31+g(d,p)
full_system_low=0
nogdv_high= 1
nogdv_low= 1
box_size=2
int_radius=5
keep_gjf_files=0
keep_log_files=1
keep_fchk_files=1
keep_chk_files=1
full_system_at_low_files=0
detailed_output=0
high_level= mp2/6-31+g(d,p)
low_level= hf/6-31+g(d,p)

Title card analysis

0 1
C 5.32199300 -2.37494700 0.50223200
O 6.08199300 -1.88894700 -0.35176800
 N 3.98899300 -2.29094700 0.42323200
 C 3.41899300 -1.57294700 -0.73376800
 C 2.25499300 -0.67494700 -0.33976800
 O 2.07599300 -0.28094700 0.82123200
 C 3.14999300 -2.54594700 -1.89176800
 O 2.69399300 -1.88894700 -3.09176800
 C 2.12799300 -3.61894700 -1.52576800
 N 1.43899300 -0.31494700 -1.31176800
 C 0.46299300 0.74705300 -1.23876800
 C -0.59900700 0.71205300 -0.17876800
 O -0.88800700 1.74405300 0.45623200
 C -0.20800700 0.90805300 -2.64176800
 C 0.85599300 1.33405300 -3.66076800
 C 0.35699300 1.53305300 -5.07276800
 O 1.15299300 1.54705300 -6.02376800
 N -0.95200700 1.69905300 -5.24876800
 N -1.26200700 -0.41094700 0.03423200
 C -2.40100700 -0.51894700 0.95123200
 C -3.62800700 0.14405300 0.33423200
 O -4.61900700 0.46405300 1.01923200
 C -2.17800700 -0.05794700 2.39523200
 C -0.84800700 -0.40494700 3.04923200
 C -0.50300700 -1.87694700 3.12623200
 O 0.57099300 -2.18794700 3.69623200
 O -1.27500700 -2.72494700 2.62423200
 N -3.62900700 0.31205300 -0.99176800
 C -4.80400700 0.79605300 -1.71176800
 C -4.63700700 0.39705300 -3.18076800
 O -3.60100700 -0.14994700 -3.55876800
 C -5.16600700 2.25005300 -1.53376800
 O -4.23100700 3.13605300 -2.10976800
 N -5.67000700 0.60005300 -3.98676800
 H 4.10083500 -2.99865600 -2.08111900
 H 1.80132200 -3.47128400 -0.51761000
 H 2.57753900 -4.58562900 -1.61706000
 H 1.28868100 -3.55211700 -2.18606200
 H 2.81510600 -0.94074500 -3.00320400
 H 4.14246900 -0.88081800 -1.11118000
 H 3.42662500 -2.70153300 1.14098000
  H -0.90320800 1.71753900 -2.56221700
 H -0.54854900 -0.06266200 -2.93612200
 H 1.19194800 2.29722100 -3.33775000
 H 1.54493700 0.51705400 -3.71338400
 H -1.57155300 1.65402400 -4.46510000
 H -1.31895800 1.84012000 -6.16825000
 H 1.05215600 1.58514400 -0.92991400
 H 1.72466700 -0.67120300 -2.20141500
 H -2.91399500 -0.58059300 2.96974400
 H -2.19423200 1.01099300 2.35047200
 H -0.94047900 -0.08300500 4.06545200
 H -0.10099900 0.02751200 2.41688900
 H -2.55426000 -1.57178000 1.06506000
 H -1.02545200 -1.23620300 -0.47859800
 H -5.13390800 2.43368100 -0.48013100
 H -6.07816900 2.39375400 -2.07433200
 H -4.45314300 4.03790400 -1.86703400
 H -5.65745300 0.32516400 -1.27041500
 H -2.82725600 0.05107500 -1.52943500
 H -6.49399700 1.04837900 -3.64029500
  H 5.73247500 -2.94032700 1.31263400
 H -5.63726000 0.25143700 -4.92346100
 H 1.31311193 -1.89626880 3.1616449

 

