%chk=Segglu.chk
%mem=4gb
%nproc=8
#p mp2/6-311g(d,p)

Single point energy calculations of segglu

0 1
C -4.32256800 -4.09237900 -3.57998200
O -3.80356800 -4.54137900 -4.61198200
N -3.68456800 -4.02237900 -2.41898200
C -2.32056800 -4.53437900 -2.25198200
C -1.94356800 -4.42937900 -0.77498200
O -2.64456800 -3.72437900 -0.03598200
C -1.29756800 -3.87837900 -3.15598200
S -1.33956800 -2.10137900 -3.38098200
N -0.85056800 -5.03637900 -0.35798200
C -0.45256800 -5.02837900 1.05801800
C 0.67543200 -4.03737900 1.30101800
O 1.63943200 -4.03137900 0.53001800
C 0.03743200 -6.43837900 1.45301800
C -1.02856800 -7.50837900 1.13901800
C 0.46443200 -6.51237900 2.92401800
C -2.36356800 -7.25837900 1.80201800
N 0.54443200 -3.22737900 2.36101800
C 1.61343200 -2.25137900 2.59801800
C 1.14743200 -1.11937900 3.49301800
O -0.02556800 -1.08637900 3.89001800
N 2.05543200 -0.19137900 3.79201800
C 1.76843200 0.90862100 4.70401800
C 1.99943200 2.28662100 4.10501800
O 2.01443200 3.29562100 4.81001800
C 2.56743200 0.71462100 6.00801800
C 3.98243200 0.23662100 5.83401800
C 4.46843200 -0.97337900 6.25301800
C 5.08443200 0.92962100 5.23601800
N 5.81043200 -1.06437900 5.94401800
C 6.20743200 0.08862100 5.32301800
C 5.24143200 2.18662100 4.64201800
C 7.46543200 0.44062100 4.83301800
C 6.47843200 2.54162100 4.12901800
C 7.58643200 1.67362100 4.22901800
N 2.10243200 2.36962100 2.78201800
H -0.35688600 -4.06900800 -2.68303600
H -1.49879400 -4.27890200 -4.12757400
H -2.22938200 -1.57986900 -2.57329600
H -2.31096300 -5.55900500 -2.56012400
H -4.14891600 -3.65117900 -1.61487400
H 0.90414200 -6.64179000 0.85943700
H 0.33260800 -5.55451400 3.38229200
H -0.13556100 -7.23714800 3.43354500
H 1.49418800 -6.79711000 2.98260000
H -0.65973600 -8.41988800 1.56093600
H -1.20857800 -7.44040000 0.08646100
H -2.31196700 -6.35939500 2.38000100
H -2.60320400 -8.08111100 2.44278800
H -3.12065800 -7.15764200 1.05264000
H -1.29944000 -4.74149700 1.64573000
H -0.31646600 -5.59575300 -0.99188800
H 2.37769300 -2.76813700 3.14002000
H 1.83533000 -1.81180300 1.64805200
H -0.26737600 -3.29084200 2.94148300
H 2.06471500 -0.06767100 6.53735200
H 2.64655600 1.68934800 6.44223700
H 3.89556200 -1.73176700 6.74451300
H 6.30510000 -1.11124900 6.81183500
H 4.41628200 2.86539700 4.58466000
H 6.59565700 3.49050500 3.64862500
H 8.30244400 -0.21991300 4.92250200
H 8.53237000 1.97639300 3.83098400
H 0.71976600 0.87735400 4.91430500
H 2.98822900 -0.27314100 3.44101200
H 2.08822900 1.53839000 2.22627100
H -5.32432600 -3.71672000 -3.59616200
H 2.17702500 3.21751700 2.25712900























