%chk=Segglu.chk
%mem=4gb
%nproc=8
#p mp2/6-311g(d,p)

Single point energy calculations of segglu

0 1
C 1.30470400 1.42712500 1.49669200
O 0.34492000 1.47398900 2.23189000
N 1.58795500 2.44582800 0.65566600
C -0.47869700 3.40144000 -0.22696300
O -0.52281000 3.75783600 -1.38489400
N -1.48342500 2.73171200 0.35359300
C -3.65217700 3.09267600 -0.75431800
C -3.83092600 -3.27629600 -1.27347100
N -2.59163400 -3.22890700 -1.01209600
O -4.77396600 2.95242400 -0.39604300
H -1.31446800 2.37643000 1.27030300
H -2.08818300 -3.95606000 -1.48256700
N -4.73056500 -2.44239500 -0.66081400
H -5.54424100 -2.24755300 -1.20075600
C -4.27089900 -1.35253900 0.17903400
H -5.09691700 -1.06277000 0.82039600
H -3.48757900 -1.74314300 0.81261000
C -3.76281100 -0.13991000 -0.60227500
H -4.59336000 0.34053000 -1.11080000
H -3.06450500 -0.48707200 -1.35719000
C -3.05835100 0.86041600 0.31323900
H -3.72122100 1.18175900 1.10960700
H -2.20737400 0.36523500 0.77186400
C -2.53791900 2.09028300 -0.42906700
H -2.10180100 1.78821300 -1.37719600
O -3.28345400 4.12588100 -1.48642500
H -2.35190800 4.11030300 -1.69216100
C 0.74786200 3.65214700 0.65869500
H 0.41953400 3.84637900 1.67090900
C 1.65819500 4.76717700 0.11504400
H 1.37536500 4.99615300 -0.90259500
H 1.56296100 5.67171200 0.70274800
C 3.06980100 4.17428900 0.15990700
H 3.73079700 4.61276100 -0.57814900
H 3.51776400 4.31455000 1.13898900
C 2.83042900 2.68773200 -0.08007600
H 2.68035800 2.48414300 -1.13639600
H 3.63509200 2.06433100 0.27295000
C 2.23029700 0.20111300 1.49382400
H 3.22507200 0.54392400 1.74280600
C 1.82940600 -0.84614300 2.54337100
H 2.66218100 -1.54157300 2.61409500
H 1.75457700 -0.34476700 3.50231100
C 0.54132800 -1.63140600 2.27908500
H 0.59370600 -2.12127200 1.31057000
H -0.30034400 -0.94826600 2.25769200
C 0.30401400 -2.70370300 3.34460400
H 0.30796800 -2.23733800 4.32879400
H 1.12065800 -3.42119400 3.32517100
C -1.01003500 -3.46321200 3.17548000
H -1.09146100 -4.18119300 3.98622000
H -1.84406100 -2.76630600 3.29603000
N -1.05979600 -4.19783000 1.92012800
H -1.75216500 -4.91779500 1.96764100
H -1.32541200 -3.61069400 1.15346400
N 2.32739000 -0.35549100 0.15461700
H 1.50439600 -0.74366400 -0.24538000
C 3.50824700 -0.62442300 -0.44679100
O 4.56913600 -0.28035500 0.01012400
C 3.44409600 -1.37036400 -1.77803600
H 2.42770700 -1.38673700 -2.15925900
C 3.90724000 -2.83271200 -1.62304500
H 4.93441700 -2.80811400 -1.25863200
N 4.29250400 -0.74027900 -2.77637500
H 3.87222200 0.08623600 -3.15075600
H 5.16407000 -0.47799800 -2.35729400
O 3.84986500 -3.45110400 -2.87335000
H 4.24607600 -2.86344300 -3.50066000
C 3.05955600 -3.65474000 -0.66799700
H 3.12949200 -3.28912100 0.35058300
H 2.01770500 -3.65009500 -0.97323200
H 3.40359900 -4.68163900 -0.68116400
N -4.43587400 -4.12486300 -2.18486100
H -3.86226800 -4.86581800 -2.51891300
H -5.35403800 -4.42652800 -1.94368700






















